decision_x1=[0,7];
decision_x2=[0,7];
decision_x3=[0,7];
decision_x4=[0,7];
decision_x5=[0,7];
decision_x6=[0,7];
decision_x7=[0,7];
decision_x8=[0,7];
decision_x9=[0,7];
decision_x10=[0,7];
decision_x11=[0,7];
decision_x12=[0,7];
decision_x13=[0,7];
decision_x14=[0,7];
random_y1=[0,7];
random_y2=[0,7];
random_y3=[0,7];
random_y4=[0,7];
random_y5=[0,7];
random_y6=[0,7];
constraint_x2_x1=[
0,0,5.5|
0,1,4|
0,2,6.8|
0,3,1.8|
0,4,2.9|
0,5,0.37|
0,6,3.8|
0,7,3.2|
1,0,9.6|
1,1,4.2|
1,2,3.5|
1,3,9.9|
1,4,9.2|
1,5,5.8|
1,6,5.2|
1,7,0.36|
2,0,6.7|
2,1,8.6|
2,2,9.9|
2,3,5.7|
2,4,1.1|
2,5,9.8|
2,6,6.2|
2,7,0.82|
3,0,7|
3,1,0.14|
3,2,8|
3,3,3.5|
3,4,3.6|
3,5,9.2|
3,6,9.9|
3,7,2.3|
4,0,2.5|
4,1,5.7|
4,2,7.7|
4,3,3.6|
4,4,4|
4,5,8.9|
4,6,1.1|
4,7,0.32|
5,0,0.83|
5,1,0.23|
5,2,0.87|
5,3,8.6|
5,4,1.9|
5,5,5.6|
5,6,2.4|
5,7,9.5|
6,0,8.4|
6,1,6.4|
6,2,9.3|
6,3,2.9|
6,4,9.7|
6,5,0.15|
6,6,0.25|
6,7,8.9|
7,0,5|
7,1,2.1|
7,2,0.26|
7,3,9|
7,4,6.1|
7,5,4.7|
7,6,9.9|
7,7,7.9|
];
constraint_x3_x2=[
0,0,2.8|
0,1,8.8|
0,2,4.4|
0,3,0.78|
0,4,5.7|
0,5,6.8|
0,6,7.7|
0,7,2.3|
1,0,7.7|
1,1,7.8|
1,2,3.3|
1,3,3.4|
1,4,2.3|
1,5,3.4|
1,6,4.9|
1,7,0.48|
2,0,3.2|
2,1,8.7|
2,2,8.5|
2,3,5.1|
2,4,5.6|
2,5,3.8|
2,6,6.6|
2,7,2.7|
3,0,8.1|
3,1,0.74|
3,2,6.7|
3,3,4|
3,4,2.9|
3,5,3.6|
3,6,7.6|
3,7,1.5|
4,0,1.4|
4,1,0.018|
4,2,9.1|
4,3,8.4|
4,4,6.4|
4,5,2.3|
4,6,7.5|
4,7,3.1|
5,0,2.8|
5,1,3.4|
5,2,4.2|
5,3,4.2|
5,4,2.4|
5,5,2.2|
5,6,9.4|
5,7,4.8|
6,0,0.5|
6,1,3.8|
6,2,2|
6,3,7.4|
6,4,7.3|
6,5,7.6|
6,6,6.8|
6,7,5.5|
7,0,6.3|
7,1,1.1|
7,2,1.7|
7,3,3.6|
7,4,6|
7,5,5.8|
7,6,3.6|
7,7,8.5|
];
constraint_x4_x3=[
0,0,7.9|
0,1,8.2|
0,2,4.1|
0,3,0.44|
0,4,9|
0,5,9.6|
0,6,8.2|
0,7,5.3|
1,0,3.2|
1,1,6.2|
1,2,9.1|
1,3,6.5|
1,4,8.8|
1,5,3.2|
1,6,7.8|
1,7,1.2|
2,0,6.9|
2,1,4.2|
2,2,3.6|
2,3,3.9|
2,4,0.81|
2,5,7|
2,6,5.8|
2,7,2.5|
3,0,4.8|
3,1,5.4|
3,2,3.3|
3,3,8.4|
3,4,2.8|
3,5,7.5|
3,6,4.7|
3,7,4.5|
4,0,7.8|
4,1,1.4|
4,2,3.4|
4,3,2.3|
4,4,6|
4,5,5.6|
4,6,4.9|
4,7,8.6|
5,0,9.6|
5,1,8.3|
5,2,1.6|
5,3,9.4|
5,4,4.1|
5,5,4.8|
5,6,2.6|
5,7,6.8|
6,0,1.8|
6,1,6.7|
6,2,3.8|
6,3,3.7|
6,4,0.11|
6,5,1.7|
6,6,9.2|
6,7,2.5|
7,0,4.5|
7,1,9.8|
7,2,2.4|
7,3,2.6|
7,4,3|
7,5,8.2|
7,6,0.22|
7,7,8.3|
];
constraint_x5_x1=[
0,0,3.9|
0,1,4.4|
0,2,4.2|
0,3,3|
0,4,1.4|
0,5,3.9|
0,6,10|
0,7,6.7|
1,0,4.9|
1,1,5.2|
1,2,0.79|
1,3,2.8|
1,4,8.1|
1,5,3.9|
1,6,0.49|
1,7,5.6|
2,0,2|
2,1,8.4|
2,2,6.1|
2,3,8.2|
2,4,3.1|
2,5,6.4|
2,6,8.5|
2,7,1.1|
3,0,6.2|
3,1,8.6|
3,2,0.94|
3,3,1.1|
3,4,4.2|
3,5,2.8|
3,6,5.6|
3,7,9.6|
4,0,7.2|
4,1,6.6|
4,2,1.2|
4,3,7.9|
4,4,3.6|
4,5,5.4|
4,6,0.25|
4,7,7.4|
5,0,1.8|
5,1,2|
5,2,3.2|
5,3,0.8|
5,4,3|
5,5,6.6|
5,6,9.4|
5,7,8.9|
6,0,0.02|
6,1,5.4|
6,2,6.7|
6,3,4.9|
6,4,4.3|
6,5,9.2|
6,6,9.1|
6,7,9|
7,0,1.1|
7,1,0.42|
7,2,5.4|
7,3,1.6|
7,4,3.6|
7,5,6|
7,6,6.3|
7,7,2.5|
];
constraint_x6_x2=[
0,0,3.2|
0,1,3.9|
0,2,9|
0,3,7.9|
0,4,5.7|
0,5,2.3|
0,6,9.2|
0,7,8.5|
1,0,4.4|
1,1,8.5|
1,2,3.3|
1,3,6.6|
1,4,3.4|
1,5,7.1|
1,6,7.7|
1,7,2.2|
2,0,2.5|
2,1,8.6|
2,2,3.5|
2,3,6.8|
2,4,3.1|
2,5,4.3|
2,6,3.6|
2,7,4.4|
3,0,1.9|
3,1,5.2|
3,2,0.59|
3,3,5.9|
3,4,2.3|
3,5,7.7|
3,6,8.7|
3,7,2|
4,0,3.3|
4,1,9.9|
4,2,4.5|
4,3,9.8|
4,4,8.7|
4,5,7.8|
4,6,5.6|
4,7,4.2|
5,0,2.9|
5,1,8.2|
5,2,6.3|
5,3,7.2|
5,4,4.5|
5,5,4.9|
5,6,9.3|
5,7,8.9|
6,0,0.52|
6,1,1.8|
6,2,7|
6,3,1.5|
6,4,4.5|
6,5,2.4|
6,6,2.7|
6,7,6|
7,0,7.6|
7,1,4.8|
7,2,5.2|
7,3,6.1|
7,4,1.1|
7,5,0.87|
7,6,0.15|
7,7,2.7|
];
constraint_x6_x5=[
0,0,0.67|
0,1,6.6|
0,2,2.6|
0,3,5.5|
0,4,0.58|
0,5,9|
0,6,3.1|
0,7,4.7|
1,0,2.9|
1,1,0.5|
1,2,4.3|
1,3,5.2|
1,4,1.2|
1,5,3.5|
1,6,0.89|
1,7,5.8|
2,0,3.2|
2,1,9.6|
2,2,4.5|
2,3,5.9|
2,4,9.2|
2,5,9.8|
2,6,1.5|
2,7,3.4|
3,0,9.4|
3,1,8.6|
3,2,8.3|
3,3,4.8|
3,4,5.6|
3,5,7.9|
3,6,2.8|
3,7,9.2|
4,0,1.9|
4,1,8.4|
4,2,2.2|
4,3,2.9|
4,4,9.6|
4,5,3.8|
4,6,7.1|
4,7,7.1|
5,0,5.6|
5,1,1.5|
5,2,3.2|
5,3,9.2|
5,4,2.3|
5,5,5.3|
5,6,6.6|
5,7,8|
6,0,8.2|
6,1,7.5|
6,2,8.8|
6,3,8.5|
6,4,2.5|
6,5,5.9|
6,6,4.8|
6,7,1.8|
7,0,3.3|
7,1,9.1|
7,2,8.4|
7,3,9.1|
7,4,8|
7,5,4.4|
7,6,10|
7,7,0.39|
];
constraint_x7_x3=[
0,0,6.1|
0,1,8|
0,2,9.6|
0,3,4.2|
0,4,9.9|
0,5,8.5|
0,6,7.5|
0,7,7.2|
1,0,7.8|
1,1,9.3|
1,2,5|
1,3,2.6|
1,4,0.86|
1,5,7.3|
1,6,1.6|
1,7,3.5|
2,0,1.9|
2,1,3.9|
2,2,2|
2,3,7|
2,4,4.1|
2,5,3.2|
2,6,3.5|
2,7,6.4|
3,0,6.8|
3,1,1.8|
3,2,5.2|
3,3,9|
3,4,8.6|
3,5,0.27|
3,6,4|
3,7,7.2|
4,0,8.6|
4,1,6.2|
4,2,3.3|
4,3,2.3|
4,4,1|
4,5,3.3|
4,6,1.6|
4,7,3|
5,0,9.1|
5,1,9.3|
5,2,9.4|
5,3,6.9|
5,4,4.8|
5,5,9.5|
5,6,7.2|
5,7,9.8|
6,0,0.99|
6,1,9|
6,2,2.4|
6,3,4.1|
6,4,9.6|
6,5,2.8|
6,6,0.46|
6,7,4.4|
7,0,1.2|
7,1,5.8|
7,2,5.4|
7,3,8.1|
7,4,6.3|
7,5,1.8|
7,6,6.1|
7,7,7.3|
];
constraint_x7_x6=[
0,0,2.7|
0,1,2.2|
0,2,6.5|
0,3,5.2|
0,4,1.8|
0,5,8.2|
0,6,3.2|
0,7,5|
1,0,6.2|
1,1,4.9|
1,2,5.9|
1,3,4.8|
1,4,9.2|
1,5,6.9|
1,6,5.2|
1,7,9.3|
2,0,4|
2,1,5.7|
2,2,1.3|
2,3,7|
2,4,7.5|
2,5,5.8|
2,6,9.3|
2,7,8.9|
3,0,4.3|
3,1,0.87|
3,2,1.6|
3,3,1.5|
3,4,4.1|
3,5,2|
3,6,6.4|
3,7,7.5|
4,0,6.4|
4,1,0.32|
4,2,8.7|
4,3,7.3|
4,4,1.4|
4,5,6.2|
4,6,6.6|
4,7,7.4|
5,0,0.96|
5,1,9.4|
5,2,7.4|
5,3,0.62|
5,4,2.7|
5,5,2.7|
5,6,5.9|
5,7,8.7|
6,0,9.7|
6,1,1.5|
6,2,9.3|
6,3,4.4|
6,4,1.6|
6,5,7.6|
6,6,0.44|
6,7,3.9|
7,0,6.2|
7,1,4.5|
7,2,3.4|
7,3,2.3|
7,4,8.2|
7,5,2.4|
7,6,0.51|
7,7,0.59|
];
constraint_x8_x4=[
0,0,0.21|
0,1,9.9|
0,2,3.3|
0,3,8.9|
0,4,8.7|
0,5,7.7|
0,6,3.2|
0,7,3.4|
1,0,1.5|
1,1,3.1|
1,2,9.8|
1,3,9.9|
1,4,2.1|
1,5,3.4|
1,6,8.7|
1,7,9.2|
2,0,6.3|
2,1,6.4|
2,2,9.5|
2,3,5.4|
2,4,7.1|
2,5,3.3|
2,6,4.1|
2,7,3.5|
3,0,9.7|
3,1,4.4|
3,2,0.9|
3,3,6.8|
3,4,2.8|
3,5,0.23|
3,6,5.9|
3,7,6.7|
4,0,0.25|
4,1,1.7|
4,2,6.6|
4,3,7.3|
4,4,6.6|
4,5,7.5|
4,6,7.1|
4,7,4.1|
5,0,7.2|
5,1,2.2|
5,2,4.7|
5,3,5.4|
5,4,6.4|
5,5,4.6|
5,6,4.2|
5,7,8.2|
6,0,1|
6,1,4.7|
6,2,0.67|
6,3,4.5|
6,4,9.2|
6,5,9.5|
6,6,4.5|
6,7,9.2|
7,0,7.8|
7,1,7.1|
7,2,4.7|
7,3,9.5|
7,4,2.4|
7,5,3|
7,6,3.2|
7,7,3.8|
];
constraint_x8_x7=[
0,0,8|
0,1,0.059|
0,2,8.2|
0,3,6.9|
0,4,7.1|
0,5,4|
0,6,5.4|
0,7,7.1|
1,0,0.61|
1,1,3.4|
1,2,8.9|
1,3,6.2|
1,4,1.8|
1,5,9.4|
1,6,9.7|
1,7,4.8|
2,0,8.1|
2,1,1.8|
2,2,1.4|
2,3,6.1|
2,4,5.2|
2,5,8|
2,6,8.6|
2,7,5.1|
3,0,9.1|
3,1,8.2|
3,2,9.5|
3,3,0.81|
3,4,7|
3,5,6.2|
3,6,8.9|
3,7,6.4|
4,0,7.7|
4,1,8.6|
4,2,0.012|
4,3,0.35|
4,4,7.4|
4,5,6.3|
4,6,9.1|
4,7,0.65|
5,0,3.8|
5,1,6.7|
5,2,8.6|
5,3,4.4|
5,4,7.6|
5,5,7.8|
5,6,4.4|
5,7,6|
6,0,7.9|
6,1,3.1|
6,2,2.7|
6,3,8.9|
6,4,5.1|
6,5,2.4|
6,6,7.5|
6,7,1.6|
7,0,1.5|
7,1,5.1|
7,2,7|
7,3,0.16|
7,4,3|
7,5,4|
7,6,5.1|
7,7,1.1|
];
constraint_x9_x5=[
0,0,1.5|
0,1,3.8|
0,2,4.7|
0,3,5|
0,4,0.56|
0,5,6.9|
0,6,5.7|
0,7,6.6|
1,0,4.1|
1,1,8.4|
1,2,4.4|
1,3,9.4|
1,4,6.2|
1,5,1.1|
1,6,0.76|
1,7,3.7|
2,0,6.3|
2,1,0.66|
2,2,1|
2,3,1.4|
2,4,6.9|
2,5,6.8|
2,6,6.5|
2,7,8.6|
3,0,9.9|
3,1,3.4|
3,2,8.9|
3,3,3.5|
3,4,8.8|
3,5,7.3|
3,6,3.2|
3,7,5.6|
4,0,8.9|
4,1,4.8|
4,2,3.8|
4,3,8.4|
4,4,6.5|
4,5,2.9|
4,6,1.1|
4,7,1.4|
5,0,9.9|
5,1,8.8|
5,2,4.8|
5,3,8.2|
5,4,0.97|
5,5,1.7|
5,6,4|
5,7,0.7|
6,0,9.3|
6,1,3.4|
6,2,7.9|
6,3,4.7|
6,4,8.4|
6,5,3.4|
6,6,0.86|
6,7,4.1|
7,0,0.95|
7,1,1.7|
7,2,7.9|
7,3,2|
7,4,6.4|
7,5,2.7|
7,6,8.2|
7,7,5.4|
];
constraint_x10_x6=[
0,0,8.5|
0,1,7.6|
0,2,4.5|
0,3,4|
0,4,2.2|
0,5,1.2|
0,6,4.7|
0,7,8.3|
1,0,6.4|
1,1,2.5|
1,2,2.1|
1,3,3.9|
1,4,9.7|
1,5,9.1|
1,6,9|
1,7,0.45|
2,0,7.4|
2,1,4.7|
2,2,4.1|
2,3,2.2|
2,4,4|
2,5,9.2|
2,6,5|
2,7,4.8|
3,0,8.3|
3,1,3.9|
3,2,0.55|
3,3,6.8|
3,4,3.4|
3,5,8.1|
3,6,9.2|
3,7,8.7|
4,0,6.4|
4,1,7.4|
4,2,5.8|
4,3,0.94|
4,4,2.9|
4,5,5.1|
4,6,9.4|
4,7,5.8|
5,0,9|
5,1,3|
5,2,9.5|
5,3,9.7|
5,4,3.7|
5,5,0.64|
5,6,7.9|
5,7,7|
6,0,2.6|
6,1,5.1|
6,2,0.085|
6,3,9.1|
6,4,5.7|
6,5,8.7|
6,6,5.8|
6,7,5.5|
7,0,7.4|
7,1,1.8|
7,2,6.5|
7,3,1.6|
7,4,2.7|
7,5,9.3|
7,6,5.8|
7,7,6|
];
constraint_x10_x9=[
0,0,7.8|
0,1,5.5|
0,2,2.5|
0,3,6.7|
0,4,6.6|
0,5,8.6|
0,6,1.7|
0,7,3.5|
1,0,2.7|
1,1,3.1|
1,2,0.7|
1,3,9.3|
1,4,9.9|
1,5,7.2|
1,6,6.7|
1,7,4.5|
2,0,4.3|
2,1,3.8|
2,2,0.17|
2,3,6.9|
2,4,4|
2,5,4.7|
2,6,2.5|
2,7,2.1|
3,0,1.1|
3,1,4.7|
3,2,6.8|
3,3,3.9|
3,4,7.7|
3,5,5.1|
3,6,2|
3,7,5.6|
4,0,9.2|
4,1,2.8|
4,2,1.8|
4,3,7.5|
4,4,1.4|
4,5,5.3|
4,6,3.3|
4,7,1.7|
5,0,9.2|
5,1,2.8|
5,2,2.9|
5,3,2.8|
5,4,3.9|
5,5,1.9|
5,6,5|
5,7,1.2|
6,0,5.7|
6,1,8.3|
6,2,1.9|
6,3,6.6|
6,4,6.8|
6,5,2.2|
6,6,9.5|
6,7,2.6|
7,0,2.6|
7,1,9.4|
7,2,1.9|
7,3,0.9|
7,4,2.4|
7,5,8.1|
7,6,6.5|
7,7,7.5|
];
constraint_x11_x7=[
0,0,5.8|
0,1,4.5|
0,2,7|
0,3,0.38|
0,4,9.6|
0,5,1.9|
0,6,1.8|
0,7,9.8|
1,0,8.8|
1,1,6.2|
1,2,8.7|
1,3,2.3|
1,4,5.9|
1,5,1.9|
1,6,5.3|
1,7,6.1|
2,0,0.29|
2,1,2.5|
2,2,0.87|
2,3,7.4|
2,4,0.84|
2,5,2.5|
2,6,2|
2,7,1.2|
3,0,3.5|
3,1,5|
3,2,2|
3,3,1.9|
3,4,1.4|
3,5,3.6|
3,6,3.3|
3,7,0.18|
4,0,9.5|
4,1,7.5|
4,2,4.7|
4,3,7.5|
4,4,2.9|
4,5,0.36|
4,6,3.8|
4,7,4.3|
5,0,9.2|
5,1,7.8|
5,2,8.1|
5,3,3.5|
5,4,2.9|
5,5,1.1|
5,6,7.3|
5,7,9.3|
6,0,9|
6,1,6.2|
6,2,2.1|
6,3,0.28|
6,4,9.9|
6,5,2|
6,6,9.6|
6,7,5|
7,0,3.4|
7,1,9.1|
7,2,2.9|
7,3,2.7|
7,4,9.1|
7,5,8.7|
7,6,8.7|
7,7,4.5|
];
constraint_x11_x10=[
0,0,8.2|
0,1,1.8|
0,2,3.8|
0,3,1.2|
0,4,4.3|
0,5,8.7|
0,6,1.4|
0,7,5.1|
1,0,9.4|
1,1,8|
1,2,0.19|
1,3,4.6|
1,4,5.3|
1,5,3.3|
1,6,8.3|
1,7,0.55|
2,0,3.9|
2,1,1.6|
2,2,9.3|
2,3,9|
2,4,2.8|
2,5,6.9|
2,6,8.4|
2,7,1.8|
3,0,3|
3,1,0.12|
3,2,5.2|
3,3,2.8|
3,4,4.5|
3,5,0.98|
3,6,9.3|
3,7,2.7|
4,0,4.3|
4,1,4.2|
4,2,3.5|
4,3,7.6|
4,4,0.62|
4,5,5.8|
4,6,3|
4,7,0.24|
5,0,1.4|
5,1,8.5|
5,2,5.4|
5,3,4|
5,4,3.8|
5,5,0.034|
5,6,4.4|
5,7,5.2|
6,0,3.9|
6,1,3.9|
6,2,3.4|
6,3,5|
6,4,4.9|
6,5,6.5|
6,6,7.4|
6,7,3.3|
7,0,7|
7,1,6.4|
7,2,0.0074|
7,3,1.9|
7,4,6.2|
7,5,6.9|
7,6,1.8|
7,7,8.7|
];
constraint_x12_x8=[
0,0,2.3|
0,1,5|
0,2,5.9|
0,3,3|
0,4,3.7|
0,5,8.6|
0,6,2.2|
0,7,7.6|
1,0,6.1|
1,1,9.4|
1,2,0.96|
1,3,5.6|
1,4,2.3|
1,5,6.3|
1,6,4.3|
1,7,8.2|
2,0,5.8|
2,1,6.9|
2,2,9|
2,3,8.1|
2,4,7.6|
2,5,2.1|
2,6,5.4|
2,7,2.3|
3,0,9.2|
3,1,9.9|
3,2,4.7|
3,3,2.1|
3,4,6.6|
3,5,5.8|
3,6,0.39|
3,7,5.8|
4,0,4.5|
4,1,4.9|
4,2,8.9|
4,3,8.9|
4,4,8.8|
4,5,3.1|
4,6,1.7|
4,7,0.21|
5,0,0.98|
5,1,3.3|
5,2,8.7|
5,3,4|
5,4,1.6|
5,5,3|
5,6,8.1|
5,7,1.7|
6,0,9.2|
6,1,0.43|
6,2,9.6|
6,3,9.8|
6,4,9.8|
6,5,4.9|
6,6,0.78|
6,7,9.3|
7,0,9.5|
7,1,7|
7,2,8.2|
7,3,2|
7,4,7.4|
7,5,7.9|
7,6,6.8|
7,7,5.1|
];
constraint_x12_x11=[
0,0,0.39|
0,1,8|
0,2,0.78|
0,3,6.8|
0,4,8.4|
0,5,6.5|
0,6,1.8|
0,7,8.7|
1,0,0.48|
1,1,6.9|
1,2,0.37|
1,3,9.6|
1,4,3.7|
1,5,2.3|
1,6,5.1|
1,7,4.6|
2,0,8.6|
2,1,1.7|
2,2,8.7|
2,3,6.7|
2,4,5.3|
2,5,4.2|
2,6,1|
2,7,4|
3,0,7.3|
3,1,4.8|
3,2,9.7|
3,3,9.9|
3,4,6.7|
3,5,9.2|
3,6,7.6|
3,7,9.7|
4,0,7.1|
4,1,0.17|
4,2,2.8|
4,3,5.6|
4,4,0.2|
4,5,6|
4,6,2.8|
4,7,7|
5,0,5|
5,1,3|
5,2,2.6|
5,3,1|
5,4,6.6|
5,5,7.5|
5,6,8.3|
5,7,8.8|
6,0,9.3|
6,1,5.1|
6,2,7.9|
6,3,6.8|
6,4,0.52|
6,5,8.9|
6,6,8.1|
6,7,5|
7,0,0.85|
7,1,6.4|
7,2,2|
7,3,9.4|
7,4,7.8|
7,5,6|
7,6,5.9|
7,7,2.1|
];
constraint_x13_x9=[
0,0,5.3|
0,1,1.7|
0,2,2|
0,3,6.8|
0,4,7.5|
0,5,4.9|
0,6,4.9|
0,7,6.3|
1,0,9.4|
1,1,0.91|
1,2,4.2|
1,3,1.1|
1,4,1.2|
1,5,1.7|
1,6,1.9|
1,7,0.75|
2,0,4.6|
2,1,1|
2,2,9|
2,3,5.7|
2,4,0.98|
2,5,9.3|
2,6,6.9|
2,7,2.8|
3,0,3.9|
3,1,9.7|
3,2,4.4|
3,3,0.38|
3,4,9.4|
3,5,2.7|
3,6,5.7|
3,7,3|
4,0,2.4|
4,1,2.6|
4,2,3.6|
4,3,1.7|
4,4,9.5|
4,5,2.9|
4,6,3.1|
4,7,7.9|
5,0,3.1|
5,1,9.2|
5,2,1.2|
5,3,6.9|
5,4,3.1|
5,5,7.4|
5,6,3.3|
5,7,2.2|
6,0,4.5|
6,1,7.4|
6,2,5.4|
6,3,9.3|
6,4,7.3|
6,5,1.2|
6,6,2.7|
6,7,9.3|
7,0,5.5|
7,1,0.96|
7,2,8.2|
7,3,1.6|
7,4,3.7|
7,5,5.7|
7,6,4.3|
7,7,3.4|
];
constraint_x14_x10=[
0,0,6.7|
0,1,5.7|
0,2,5.8|
0,3,2.6|
0,4,7.8|
0,5,2.7|
0,6,3.1|
0,7,9.5|
1,0,10|
1,1,3.8|
1,2,8.4|
1,3,0.11|
1,4,7.5|
1,5,9|
1,6,4.2|
1,7,0.68|
2,0,7.9|
2,1,7|
2,2,3.2|
2,3,2.7|
2,4,5.7|
2,5,4.3|
2,6,8.4|
2,7,5.9|
3,0,2.6|
3,1,4.9|
3,2,3.6|
3,3,4.2|
3,4,1.9|
3,5,5.8|
3,6,7|
3,7,8.7|
4,0,6|
4,1,6.6|
4,2,5.9|
4,3,2.4|
4,4,7|
4,5,9.9|
4,6,2.9|
4,7,5.2|
5,0,5.8|
5,1,1.6|
5,2,8.7|
5,3,0.65|
5,4,8.3|
5,5,6.7|
5,6,9.5|
5,7,8.7|
6,0,5.9|
6,1,9|
6,2,5.4|
6,3,3.7|
6,4,3.3|
6,5,0.81|
6,6,7.2|
6,7,3.6|
7,0,4.7|
7,1,2.7|
7,2,3|
7,3,4.7|
7,4,9.9|
7,5,8.8|
7,6,2.3|
7,7,6|
];
constraint_x1_y1=[
0,0,8.8|
0,1,5.3|
0,2,3.3|
0,3,6.5|
0,4,7.2|
0,5,5.1|
0,6,1.9|
0,7,1.2|
1,0,5.9|
1,1,9.2|
1,2,1.8|
1,3,2.5|
1,4,4|
1,5,9.3|
1,6,9.1|
1,7,1.1|
2,0,8|
2,1,3.2|
2,2,8.1|
2,3,9.1|
2,4,0.45|
2,5,0.21|
2,6,7.8|
2,7,5.7|
3,0,9|
3,1,4.3|
3,2,8.8|
3,3,9.4|
3,4,9.3|
3,5,2.6|
3,6,7|
3,7,5.2|
4,0,7.2|
4,1,6.5|
4,2,8|
4,3,0.72|
4,4,9.7|
4,5,3.2|
4,6,8.8|
4,7,3.9|
5,0,3.9|
5,1,3.9|
5,2,3|
5,3,7.2|
5,4,9.5|
5,5,8.4|
5,6,6.9|
5,7,1.7|
6,0,0.16|
6,1,8.1|
6,2,9.3|
6,3,3|
6,4,1.9|
6,5,0.13|
6,6,8.5|
6,7,3|
7,0,7.7|
7,1,3.4|
7,2,6.7|
7,3,3.3|
7,4,2.2|
7,5,9.3|
7,6,5.9|
7,7,8.1|
];
constraint_x2_y2=[
0,0,5.6|
0,1,4.4|
0,2,0.06|
0,3,0.35|
0,4,0.89|
0,5,4.9|
0,6,4.3|
0,7,9.6|
1,0,9.6|
1,1,5.1|
1,2,9.2|
1,3,7.9|
1,4,1.6|
1,5,6.7|
1,6,7.3|
1,7,7.8|
2,0,6|
2,1,9.4|
2,2,2.3|
2,3,2.1|
2,4,0.92|
2,5,0.2|
2,6,3.2|
2,7,9.1|
3,0,1.8|
3,1,5.8|
3,2,9.5|
3,3,2.8|
3,4,2.8|
3,5,1.3|
3,6,0.76|
3,7,9.7|
4,0,8.3|
4,1,8.1|
4,2,2|
4,3,3.8|
4,4,4.9|
4,5,8.3|
4,6,5.1|
4,7,4.8|
5,0,7.2|
5,1,1.3|
5,2,5.8|
5,3,4|
5,4,2.8|
5,5,3|
5,6,0.86|
5,7,7.1|
6,0,4.6|
6,1,3.1|
6,2,9.4|
6,3,8.8|
6,4,9.4|
6,5,0.46|
6,6,8.6|
6,7,7.7|
7,0,0.31|
7,1,6.1|
7,2,4.1|
7,3,4.1|
7,4,1.8|
7,5,5.9|
7,6,5.6|
7,7,4.9|
];
constraint_x3_y3=[
0,0,2.1|
0,1,1.4|
0,2,0.45|
0,3,7.7|
0,4,1.8|
0,5,6.7|
0,6,3.9|
0,7,2.3|
1,0,1.2|
1,1,1.2|
1,2,8.9|
1,3,1|
1,4,2.2|
1,5,6.3|
1,6,2.2|
1,7,8.2|
2,0,9.7|
2,1,8.6|
2,2,2.8|
2,3,0.03|
2,4,2.7|
2,5,1.6|
2,6,7.3|
2,7,5.9|
3,0,5.1|
3,1,4.5|
3,2,6.6|
3,3,9.5|
3,4,9.9|
3,5,2.8|
3,6,3.8|
3,7,5|
4,0,4.5|
4,1,2.9|
4,2,5.7|
4,3,7.4|
4,4,2.6|
4,5,9.4|
4,6,4.9|
4,7,6.7|
5,0,9.5|
5,1,8.8|
5,2,0.053|
5,3,6.3|
5,4,9.3|
5,5,1.8|
5,6,9.1|
5,7,7|
6,0,5.8|
6,1,9.4|
6,2,5.6|
6,3,2.9|
6,4,4.3|
6,5,9.5|
6,6,0.34|
6,7,2.5|
7,0,2.1|
7,1,1.9|
7,2,0.97|
7,3,1|
7,4,6.9|
7,5,4.8|
7,6,6.7|
7,7,4.8|
];
constraint_x4_y4=[
0,0,6.2|
0,1,2.1|
0,2,3|
0,3,2|
0,4,1.7|
0,5,5.8|
0,6,0.21|
0,7,7.2|
1,0,5.8|
1,1,9.4|
1,2,2.2|
1,3,4.4|
1,4,0.95|
1,5,9|
1,6,5.5|
1,7,8.5|
2,0,0.67|
2,1,1.7|
2,2,4.8|
2,3,3.1|
2,4,4.5|
2,5,9.2|
2,6,0.43|
2,7,3.8|
3,0,7.2|
3,1,2|
3,2,7.7|
3,3,1.9|
3,4,7.8|
3,5,3.8|
3,6,3.3|
3,7,8.4|
4,0,3.1|
4,1,5.2|
4,2,8.4|
4,3,9.6|
4,4,3.1|
4,5,5.9|
4,6,2.8|
4,7,3.9|
5,0,10|
5,1,7.8|
5,2,5.5|
5,3,7.3|
5,4,2|
5,5,8.2|
5,6,7.1|
5,7,5.8|
6,0,7.8|
6,1,9.8|
6,2,5.5|
6,3,1.7|
6,4,0.25|
6,5,3.9|
6,6,3.9|
6,7,2.5|
7,0,7.5|
7,1,1.2|
7,2,7.4|
7,3,4.8|
7,4,5|
7,5,8.3|
7,6,7.9|
7,7,8|
];
constraint_x5_y5=[
0,0,3|
0,1,8.1|
0,2,2.2|
0,3,3.2|
0,4,4.8|
0,5,7.8|
0,6,9.8|
0,7,6.8|
1,0,7.4|
1,1,5.5|
1,2,1.7|
1,3,7.3|
1,4,2.3|
1,5,2.9|
1,6,2.9|
1,7,9|
2,0,6.9|
2,1,3.6|
2,2,2|
2,3,1.1|
2,4,2.2|
2,5,5.5|
2,6,5|
2,7,8.2|
3,0,2.9|
3,1,9.9|
3,2,3.1|
3,3,2.8|
3,4,8.8|
3,5,8.4|
3,6,7.6|
3,7,3.1|
4,0,3.7|
4,1,4.1|
4,2,8|
4,3,7.7|
4,4,9.9|
4,5,4.4|
4,6,4.2|
4,7,7.9|
5,0,8.8|
5,1,4.1|
5,2,8.7|
5,3,8.6|
5,4,0.4|
5,5,1.4|
5,6,7.4|
5,7,5.2|
6,0,1.6|
6,1,5.6|
6,2,4.5|
6,3,7.6|
6,4,8|
6,5,8.4|
6,6,8.7|
6,7,3.6|
7,0,9.8|
7,1,2.9|
7,2,2.3|
7,3,6.7|
7,4,1.2|
7,5,6.9|
7,6,0.091|
7,7,1.6|
];
constraint_x6_y6=[
0,0,9.1|
0,1,7.1|
0,2,9.1|
0,3,0.5|
0,4,0.85|
0,5,6.5|
0,6,5.5|
0,7,5.5|
1,0,9.8|
1,1,9.5|
1,2,6.6|
1,3,4.8|
1,4,6.4|
1,5,1.2|
1,6,3.5|
1,7,6.9|
2,0,5.5|
2,1,4|
2,2,3.4|
2,3,9.1|
2,4,7.1|
2,5,0.17|
2,6,1.2|
2,7,7.7|
3,0,9.9|
3,1,1.8|
3,2,6.1|
3,3,1.3|
3,4,6.1|
3,5,8|
3,6,0.71|
3,7,9.9|
4,0,2.8|
4,1,1.6|
4,2,2.8|
4,3,9.9|
4,4,4.5|
4,5,4.5|
4,6,8.2|
4,7,9.4|
5,0,8.5|
5,1,1.2|
5,2,8|
5,3,2.9|
5,4,5|
5,5,0.075|
5,6,5.1|
5,7,9.3|
6,0,6.8|
6,1,1.1|
6,2,3.9|
6,3,4.2|
6,4,9.5|
6,5,9.2|
6,6,7.6|
6,7,5.1|
7,0,3.7|
7,1,6.5|
7,2,5.1|
7,3,9.7|
7,4,7.5|
7,5,4.3|
7,6,5.7|
7,7,1.8|
];
initial_distribution_y1=[0.24,0.088,0.14,0.19,0.16,0.068,0.0048,0.11];
initial_distribution_y2=[0.2,0.049,0.054,0.076,0.095,0.082,0.12,0.32];
initial_distribution_y3=[0.23,0.13,0.041,0.03,0.18,0.056,0.21,0.13];
initial_distribution_y4=[0.15,0.14,0.11,0.082,0.2,0.0074,0.17,0.13];
initial_distribution_y5=[0.17,0.084,0.22,0.086,0.16,0.084,0.1,0.099];
initial_distribution_y6=[0.17,0.1,0.13,0.11,0.092,0.18,0.16,0.052];
transition_y1=[
0.025,0.15,0.17,0.085,0.17,0.079,0.19,0.12|
0.11,0.16,0.14,0.081,0.09,0.13,0.11,0.17|
0.21,0.073,0.076,0.19,0.087,0.2,0.043,0.12|
0.045,0.26,0.0088,0.069,0.15,0.18,0.07,0.21|
0.046,0.18,0.14,0.19,0.15,0.052,0.12,0.11|
0.16,0.041,0.23,0.011,0.17,0.053,0.19,0.15|
0.18,0.042,0.042,0.16,0.09,0.26,0.084,0.15|
0.23,0.087,0.023,0.0028,0.18,0.23,0.051,0.2|
];
transition_y2=[
0.068,0.034,0.083,0.14,0.1,0.22,0.079,0.27|
0.0073,0.19,0.14,0.2,0.056,0.053,0.054,0.29|
0.15,0.22,0.13,0.37,0.046,0.017,0.013,0.059|
0.16,0.14,0.17,0.067,0.29,0.089,0.064,0.012|
0.18,0.15,0.078,0.0075,0.16,0.07,0.16,0.2|
0.16,0.24,0.16,0.086,0.032,0.0069,0.12,0.2|
0.17,0.082,0.18,0.13,0.018,0.18,0.085,0.16|
0.25,0.24,0.03,0.23,0.058,0.012,0.019,0.16|
];
transition_y3=[
0.14,0.16,0.055,0.14,0.12,0.14,0.082,0.15|
0.17,0.012,0.23,0.22,0.042,0.077,0.17,0.076|
0.16,0.1,0.2,0.18,0.037,0.004,0.1,0.22|
0.16,0.014,0.12,0.12,0.16,0.24,0.12,0.067|
0.12,0.19,0.048,0.089,0.14,0.12,0.18,0.11|
0.17,0.13,0.041,0.12,0.066,0.16,0.18,0.14|
0.16,0.13,0.066,0.18,0.26,0.15,0.03,0.029|
0.038,0.21,0.034,0.053,0.16,0.26,0.053,0.2|
];
transition_y4=[
0.0058,0.012,0.35,0.1,0.06,0.23,0.08,0.16|
0.15,0.11,0.26,0.024,0.022,0.13,0.13,0.18|
0.19,0.1,0.015,0.11,0.22,0.21,0.083,0.064|
0.13,0.054,0.24,0.028,0.051,0.16,0.071,0.26|
0.12,0.013,0.07,0.26,0.0089,0.26,0.1,0.18|
0.094,0.19,0.13,0.063,0.13,0.16,0.039,0.19|
0.041,0.21,0.16,0.059,0.22,0.16,0.0066,0.15|
0.016,0.074,0.039,0.15,0.22,0.13,0.15,0.21|
];
transition_y5=[
0.12,0.088,0.13,0.27,0.014,0.028,0.063,0.28|
0.016,0.2,0.09,0.19,0.18,0.12,0.021,0.19|
0.14,0.17,0.05,0.03,0.18,0.11,0.24,0.079|
0.19,0.18,0.072,0.11,0.24,0.074,0.096,0.033|
0.17,0.22,0.18,0.012,0.15,0.0063,0.075,0.18|
0.08,0.15,0.089,0.19,0.066,0.14,0.12,0.16|
0.12,0.23,0.036,0.19,0.17,0.079,0.1,0.083|
0.1,0.098,0.11,0.1,0.16,0.16,0.18,0.089|
];
transition_y6=[
0.1,0.16,0.19,0.038,0.11,0.21,0.088,0.096|
0.16,0.073,0.029,0.051,0.21,0.25,0.075,0.15|
0.22,0.12,0.062,0.068,0.16,0.13,0.033,0.21|
0.13,0.091,0.058,0.099,0.15,0.2,0.17,0.098|
0.19,0.013,0.0046,0.37,0.083,0.0053,0.2,0.13|
0.12,0.12,0.092,0.13,0.16,0.11,0.14,0.14|
0.14,0.12,0.14,0.1,0.092,0.071,0.13,0.2|
0.18,0.19,0.14,0.023,0.13,0.023,0.18,0.13|
];
